(set-info :source |printed by MathSAT|)
(declare-fun nB0.next () Int)
(declare-fun call__main_.diff0 () Int)
(declare-fun call__main_.call_controleur.flby () Bool)
(declare-fun call_Sofar.Sofar.next () Bool)
(declare-fun call__main_.call_controleur2.flby2 () Bool)
(declare-fun call__main_.call_controleur.flby2 () Bool)
(declare-fun call__main_.call_controleur2.avance () Bool)
(declare-fun call__main_._H1_ () Bool)
(declare-fun retard0.next () Bool)
(declare-fun call__main_.call_hypothese.ite3.next () Int)
(declare-fun call__main_.avance1 () Bool)
(declare-fun call__main_.avance0.next () Bool)
(declare-fun call__main_.call_hypothese2.ok.next () Bool)
(declare-fun call__main_.call_hypothese2.flby.next () Bool)
(declare-fun param__B0_.next () Bool)
(declare-fun call__main_.call_hypothese2.ite2.next () Bool)
(declare-fun call__main_.call_controleur2.ite.next () Bool)
(declare-fun call__main_.call_controleur2.flby () Bool)
(declare-fun nB1.next () Int)
(declare-fun call__main_.diff1.next () Int)
(declare-fun call__main_.flby3.next () Int)
(declare-fun call__main_.retard1.next () Bool)
(declare-fun avance1.next () Bool)
(declare-fun nB1 () Int)
(declare-fun call__main_.call_hypothese2.ite4.next () Int)
(declare-fun call__main_.call_controleur2.retard.next () Bool)
(declare-fun call__main_.ite2.next () Int)
(declare-fun call__main_.call_hypothese2.c () Int)
(declare-fun call__main_.call_controleur2.flby2.next () Bool)
(declare-fun diff1 () Int)
(declare-fun call__main_.call_controleur.diff () Int)
(declare-fun call__main_.call_hypothese.c () Int)
(declare-fun call__main_.flby2 () Int)
(declare-fun call__main_.call_controleur.ite.next () Bool)
(declare-fun call__main_.call_hypothese.flby2 () Int)
(declare-fun call__main_.call_controleur.retard () Bool)
(declare-fun call__main_.call_controleur2.diff () Int)
(declare-fun flby () Bool)
(declare-fun call__main_.nB0.next () Int)
(declare-fun call_Sofar.Sofar () Bool)
(declare-fun call__main_.call_controleur.retard.next () Bool)
(declare-fun param__B1_.next () Bool)
(declare-fun nS () Int)
(declare-fun call__main_.call_hypothese.flby.next () Bool)
(declare-fun call__main_.call_hypothese2.c.next () Int)
(declare-fun call__main_.ite.next () Int)
(declare-fun avance0 () Bool)
(declare-fun call__main_.flby.next () Int)
(declare-fun call__main_.diff1 () Int)
(declare-fun call__main_.call_controleur2.avance.next () Bool)
(declare-fun call__main_._H1_.next () Bool)
(declare-fun call__main_.retard0.next () Bool)
(declare-fun call__main_.diff0.next () Int)
(declare-fun nB0 () Int)
(declare-fun call__main_.flby3 () Int)
(declare-fun call_Sofar.flby () Bool)
(declare-fun call__main_.call_hypothese2.flby2 () Int)
(declare-fun call__main_.call_controleur.diff.next () Int)
(declare-fun call__main_.call_hypothese.ok () Bool)
(declare-fun call__main_.nS () Int)
(declare-fun call__main_.ite3.next () Int)
(declare-fun call__main_.call_hypothese2.ok () Bool)
(declare-fun nS.next () Int)
(declare-fun call__main_.call_controleur2.retard () Bool)
(declare-fun call__main_.call_controleur.avance.next () Bool)
(declare-fun call_Sofar.flby.next () Bool)
(declare-fun diff1.next () Int)
(declare-fun call__main_.call_hypothese.c.next () Int)
(declare-fun call__main_.call_hypothese.ite2.next () Bool)
(declare-fun call__main_.call_hypothese.flby2.next () Int)
(declare-fun call__main_.call_hypothese2.ite3.next () Int)
(declare-fun call__main_.nB0 () Int)
(declare-fun _OK_ () Bool)
(declare-fun retard1 () Bool)
(declare-fun call__main_.call_hypothese.flby () Bool)
(declare-fun diff0 () Int)
(declare-fun avance0.next () Bool)
(declare-fun retard0 () Bool)
(declare-fun call__main_.nS.next () Int)
(declare-fun ast () Bool)
(declare-fun call__main_.call_hypothese.ok.next () Bool)
(declare-fun flby.next () Bool)
(declare-fun call__main_.call_controleur.avance () Bool)
(declare-fun call__main_.call_controleur2.flby.next () Bool)
(declare-fun call__main_.call_controleur2.ite2.next () Bool)
(declare-fun call__main_.call_hypothese.ite4.next () Int)
(declare-fun call__main_.call_hypothese2.ite.next () Bool)
(declare-fun call__main_.flby () Int)
(declare-fun call__main_.ast () Bool)
(declare-fun call__main_.retard0 () Bool)
(declare-fun call__main_.call_hypothese.ite.next () Bool)
(declare-fun call__main_.call_controleur.ite2.next () Bool)
(declare-fun call__main_.flby2.next () Int)
(declare-fun call__main_._H0_.next () Bool)
(declare-fun ast.next () Bool)
(declare-fun call__main_.ast.next () Bool)
(declare-fun call__main_.avance0 () Bool)
(declare-fun call__main_.nB1 () Int)
(declare-fun call__main_.retard1 () Bool)
(declare-fun _OK_.next () Bool)
(declare-fun diff0.next () Int)
(declare-fun call__main_.call_controleur.flby.next () Bool)
(declare-fun call__main_.call_hypothese2.flby () Bool)
(declare-fun call__main_.nB1.next () Int)
(declare-fun call__main_.call_controleur2.diff.next () Int)
(declare-fun call__main_.call_hypothese2.flby2.next () Int)
(declare-fun call__main_.avance1.next () Bool)
(declare-fun call__main_._H0_ () Bool)
(declare-fun avance1 () Bool)
(declare-fun call__main_.call_controleur.flby2.next () Bool)
(declare-fun retard1.next () Bool)
(declare-fun param__S_.next () Bool)
(define-fun .def_928 () Bool (= call_Sofar.flby.next call_Sofar.Sofar.next))
(define-fun .def_925 () Bool (= call__main_.call_controleur2.flby2.next call__main_.call_controleur2.retard.next))
(define-fun .def_923 () Bool (= call__main_.call_controleur2.flby.next call__main_.call_controleur2.avance.next))
(define-fun .def_916 () Int (* (- 1) call__main_.nB1.next))
(define-fun .def_919 () Int (+ .def_916 call__main_.nS.next))
(define-fun .def_920 () Int (+ call__main_.call_controleur2.diff.next .def_919))
(define-fun .def_921 () Bool (= .def_920 0))
(define-fun .def_914 () Bool (= call__main_.call_controleur.flby2.next call__main_.call_controleur.retard.next))
(define-fun .def_912 () Bool (= call__main_.call_controleur.flby.next call__main_.call_controleur.avance.next))
(define-fun .def_905 () Int (* (- 1) call__main_.nB0.next))
(define-fun .def_908 () Int (+ .def_905 call__main_.nS.next))
(define-fun .def_909 () Int (+ call__main_.call_controleur.diff.next .def_908))
(define-fun .def_910 () Bool (= .def_909 0))
(define-fun .def_903 () Bool (= call__main_.call_hypothese2.flby2.next call__main_.call_hypothese2.c.next))
(define-fun .def_900 () Bool (= call__main_.call_hypothese2.flby.next call__main_.call_hypothese2.ok.next))
(define-fun .def_898 () Bool (= call__main_.call_hypothese.flby2.next call__main_.call_hypothese.c.next))
(define-fun .def_895 () Bool (= call__main_.call_hypothese.flby.next call__main_.call_hypothese.ok.next))
(define-fun .def_893 () Bool (= call__main_._H1_.next call__main_.call_hypothese2.ok.next))
(define-fun .def_890 () Bool (= call__main_._H0_.next call__main_.call_hypothese.ok.next))
(define-fun .def_887 () Bool (= call__main_.retard1.next call__main_.call_controleur2.retard.next))
(define-fun .def_884 () Bool (= call__main_.retard0.next call__main_.call_controleur.retard.next))
(define-fun .def_881 () Bool (= call__main_.avance1.next call__main_.call_controleur2.avance.next))
(define-fun .def_878 () Bool (= call__main_.avance0.next call__main_.call_controleur.avance.next))
(define-fun .def_875 () Bool (= call__main_.call_controleur2.diff.next call__main_.diff1.next))
(define-fun .def_873 () Bool (= call__main_.call_controleur.diff.next call__main_.diff0.next))
(define-fun .def_871 () Bool (= call__main_.flby3.next call__main_.nS.next))
(define-fun .def_869 () Bool (= call__main_.flby2.next call__main_.nB1.next))
(define-fun .def_867 () Bool (= call__main_.flby.next call__main_.nB0.next))
(define-fun .def_864 () Bool (and call__main_._H0_.next call__main_._H1_.next))
(define-fun .def_865 () Bool (= call__main_.ast.next .def_864))
(define-fun .def_860 () Bool (= ast.next call__main_.ast.next))
(define-fun .def_857 () Bool (= retard1.next call__main_.retard1.next))
(define-fun .def_853 () Bool (= retard0.next call__main_.retard0.next))
(define-fun .def_849 () Bool (= call__main_.avance1.next avance1.next))
(define-fun .def_846 () Bool (= call__main_.avance0.next avance0.next))
(define-fun .def_843 () Bool (= diff1.next call__main_.diff1.next))
(define-fun .def_839 () Bool (= diff0.next call__main_.diff0.next))
(define-fun .def_835 () Bool (= nS.next call__main_.nS.next))
(define-fun .def_831 () Bool (= nB1.next call__main_.nB1.next))
(define-fun .def_827 () Bool (= nB0.next call__main_.nB0.next))
(define-fun .def_824 () Bool (= flby.next _OK_.next))
(define-fun .def_828 () Bool (and .def_824 .def_827))
(define-fun .def_832 () Bool (and .def_828 .def_831))
(define-fun .def_836 () Bool (and .def_832 .def_835))
(define-fun .def_840 () Bool (and .def_836 .def_839))
(define-fun .def_844 () Bool (and .def_840 .def_843))
(define-fun .def_847 () Bool (and .def_844 .def_846))
(define-fun .def_850 () Bool (and .def_847 .def_849))
(define-fun .def_854 () Bool (and .def_850 .def_853))
(define-fun .def_858 () Bool (and .def_854 .def_857))
(define-fun .def_861 () Bool (and .def_858 .def_860))
(define-fun .def_866 () Bool (and .def_861 .def_865))
(define-fun .def_868 () Bool (and .def_866 .def_867))
(define-fun .def_870 () Bool (and .def_868 .def_869))
(define-fun .def_872 () Bool (and .def_870 .def_871))
(define-fun .def_874 () Bool (and .def_872 .def_873))
(define-fun .def_876 () Bool (and .def_874 .def_875))
(define-fun .def_879 () Bool (and .def_876 .def_878))
(define-fun .def_882 () Bool (and .def_879 .def_881))
(define-fun .def_885 () Bool (and .def_882 .def_884))
(define-fun .def_888 () Bool (and .def_885 .def_887))
(define-fun .def_891 () Bool (and .def_888 .def_890))
(define-fun .def_894 () Bool (and .def_891 .def_893))
(define-fun .def_896 () Bool (and .def_894 .def_895))
(define-fun .def_899 () Bool (and .def_896 .def_898))
(define-fun .def_901 () Bool (and .def_899 .def_900))
(define-fun .def_904 () Bool (and .def_901 .def_903))
(define-fun .def_911 () Bool (and .def_904 .def_910))
(define-fun .def_913 () Bool (and .def_911 .def_912))
(define-fun .def_915 () Bool (and .def_913 .def_914))
(define-fun .def_922 () Bool (and .def_915 .def_921))
(define-fun .def_924 () Bool (and .def_922 .def_923))
(define-fun .def_926 () Bool (and .def_924 .def_925))
(define-fun .def_929 () Bool (and .def_926 .def_928))
(define-fun .def_624 () Bool (= call_Sofar.flby call_Sofar.Sofar))
(define-fun .def_621 () Bool (= call__main_.call_controleur2.flby2 call__main_.call_controleur2.retard))
(define-fun .def_619 () Bool (= call__main_.call_controleur2.flby call__main_.call_controleur2.avance))
(define-fun .def_614 () Int (* (- 1) call__main_.call_controleur2.diff))
(define-fun .def_602 () Int (* (- 1) call__main_.nS))
(define-fun .def_615 () Int (+ .def_602 .def_614))
(define-fun .def_616 () Int (+ call__main_.nB1 .def_615))
(define-fun .def_617 () Bool (= .def_616 0))
(define-fun .def_609 () Bool (= call__main_.call_controleur.flby2 call__main_.call_controleur.retard))
(define-fun .def_607 () Bool (= call__main_.call_controleur.flby call__main_.call_controleur.avance))
(define-fun .def_601 () Int (* (- 1) call__main_.call_controleur.diff))
(define-fun .def_603 () Int (+ .def_602 .def_601))
(define-fun .def_604 () Int (+ call__main_.nB0 .def_603))
(define-fun .def_605 () Bool (= .def_604 0))
(define-fun .def_596 () Bool (= call__main_.call_hypothese2.flby2 call__main_.call_hypothese2.c))
(define-fun .def_593 () Bool (= call__main_.call_hypothese2.flby call__main_.call_hypothese2.ok))
(define-fun .def_591 () Bool (= call__main_.call_hypothese.flby2 call__main_.call_hypothese.c))
(define-fun .def_588 () Bool (= call__main_.call_hypothese.flby call__main_.call_hypothese.ok))
(define-fun .def_586 () Bool (= call__main_._H1_ call__main_.call_hypothese2.ok))
(define-fun .def_583 () Bool (= call__main_._H0_ call__main_.call_hypothese.ok))
(define-fun .def_580 () Bool (= call__main_.retard1 call__main_.call_controleur2.retard))
(define-fun .def_577 () Bool (= call__main_.retard0 call__main_.call_controleur.retard))
(define-fun .def_574 () Bool (= call__main_.avance1 call__main_.call_controleur2.avance))
(define-fun .def_571 () Bool (= call__main_.avance0 call__main_.call_controleur.avance))
(define-fun .def_568 () Bool (= call__main_.diff1 call__main_.call_controleur2.diff))
(define-fun .def_565 () Bool (= call__main_.diff0 call__main_.call_controleur.diff))
(define-fun .def_562 () Bool (= call__main_.flby3 call__main_.nS))
(define-fun .def_560 () Bool (= call__main_.flby2 call__main_.nB1))
(define-fun .def_558 () Bool (= call__main_.flby call__main_.nB0))
(define-fun .def_555 () Bool (and call__main_._H0_ call__main_._H1_))
(define-fun .def_556 () Bool (= call__main_.ast .def_555))
(define-fun .def_551 () Bool (= ast call__main_.ast))
(define-fun .def_548 () Bool (= retard1 call__main_.retard1))
(define-fun .def_544 () Bool (= retard0 call__main_.retard0))
(define-fun .def_540 () Bool (= avance1 call__main_.avance1))
(define-fun .def_536 () Bool (= avance0 call__main_.avance0))
(define-fun .def_532 () Bool (= diff1 call__main_.diff1))
(define-fun .def_528 () Bool (= diff0 call__main_.diff0))
(define-fun .def_524 () Bool (= nS call__main_.nS))
(define-fun .def_520 () Bool (= nB1 call__main_.nB1))
(define-fun .def_516 () Bool (= nB0 call__main_.nB0))
(define-fun .def_513 () Bool (= flby _OK_))
(define-fun .def_517 () Bool (and .def_513 .def_516))
(define-fun .def_521 () Bool (and .def_517 .def_520))
(define-fun .def_525 () Bool (and .def_521 .def_524))
(define-fun .def_529 () Bool (and .def_525 .def_528))
(define-fun .def_533 () Bool (and .def_529 .def_532))
(define-fun .def_537 () Bool (and .def_533 .def_536))
(define-fun .def_541 () Bool (and .def_537 .def_540))
(define-fun .def_545 () Bool (and .def_541 .def_544))
(define-fun .def_549 () Bool (and .def_545 .def_548))
(define-fun .def_552 () Bool (and .def_549 .def_551))
(define-fun .def_557 () Bool (and .def_552 .def_556))
(define-fun .def_559 () Bool (and .def_557 .def_558))
(define-fun .def_561 () Bool (and .def_559 .def_560))
(define-fun .def_563 () Bool (and .def_561 .def_562))
(define-fun .def_566 () Bool (and .def_563 .def_565))
(define-fun .def_569 () Bool (and .def_566 .def_568))
(define-fun .def_572 () Bool (and .def_569 .def_571))
(define-fun .def_575 () Bool (and .def_572 .def_574))
(define-fun .def_578 () Bool (and .def_575 .def_577))
(define-fun .def_581 () Bool (and .def_578 .def_580))
(define-fun .def_584 () Bool (and .def_581 .def_583))
(define-fun .def_587 () Bool (and .def_584 .def_586))
(define-fun .def_589 () Bool (and .def_587 .def_588))
(define-fun .def_592 () Bool (and .def_589 .def_591))
(define-fun .def_594 () Bool (and .def_592 .def_593))
(define-fun .def_597 () Bool (and .def_594 .def_596))
(define-fun .def_606 () Bool (and .def_597 .def_605))
(define-fun .def_608 () Bool (and .def_606 .def_607))
(define-fun .def_610 () Bool (and .def_608 .def_609))
(define-fun .def_618 () Bool (and .def_610 .def_617))
(define-fun .def_620 () Bool (and .def_618 .def_619))
(define-fun .def_622 () Bool (and .def_620 .def_621))
(define-fun .def_625 () Bool (and .def_622 .def_624))
(define-fun .def_930 () Bool (and .def_625 .def_929))
(define-fun .def_819 () Bool (and call_Sofar.Sofar ast.next))
(define-fun .def_821 () Bool (= .def_819 call_Sofar.flby.next))
(define-fun .def_816 () Bool (= call__main_.call_controleur2.ite2.next call__main_.call_controleur2.flby2.next))
(define-fun .def_813 () Bool (= call__main_.call_controleur2.ite.next call__main_.call_controleur2.flby.next))
(define-fun .def_806 () Bool (<= 0 call__main_.call_controleur2.diff.next))
(define-fun .def_807 () Bool (not .def_806))
(define-fun .def_808 () Bool (= call__main_.call_controleur2.ite2.next .def_807))
(define-fun .def_805 () Bool (not call__main_.call_controleur2.retard))
(define-fun .def_809 () Bool (or .def_805 .def_808))
(define-fun .def_800 () Bool (<= call__main_.call_controleur2.diff.next (- 10)))
(define-fun .def_802 () Bool (= .def_800 call__main_.call_controleur2.ite2.next))
(define-fun .def_803 () Bool (or call__main_.call_controleur2.retard .def_802))
(define-fun .def_796 () Bool (<= 10 call__main_.call_controleur2.diff.next))
(define-fun .def_797 () Bool (= call__main_.call_controleur2.ite.next .def_796))
(define-fun .def_798 () Bool (or call__main_.call_controleur2.avance .def_797))
(define-fun .def_791 () Bool (<= call__main_.call_controleur2.diff.next 0))
(define-fun .def_792 () Bool (not .def_791))
(define-fun .def_794 () Bool (= .def_792 call__main_.call_controleur2.ite.next))
(define-fun .def_789 () Bool (not call__main_.call_controleur2.avance))
(define-fun .def_795 () Bool (or .def_789 .def_794))
(define-fun .def_799 () Bool (and .def_795 .def_798))
(define-fun .def_804 () Bool (and .def_799 .def_803))
(define-fun .def_810 () Bool (and .def_804 .def_809))
(define-fun .def_787 () Bool (= call__main_.call_controleur.ite2.next call__main_.call_controleur.flby2.next))
(define-fun .def_784 () Bool (= call__main_.call_controleur.ite.next call__main_.call_controleur.flby.next))
(define-fun .def_777 () Bool (<= 0 call__main_.call_controleur.diff.next))
(define-fun .def_778 () Bool (not .def_777))
(define-fun .def_779 () Bool (= call__main_.call_controleur.ite2.next .def_778))
(define-fun .def_776 () Bool (not call__main_.call_controleur.retard))
(define-fun .def_780 () Bool (or .def_776 .def_779))
(define-fun .def_771 () Bool (<= call__main_.call_controleur.diff.next (- 10)))
(define-fun .def_773 () Bool (= .def_771 call__main_.call_controleur.ite2.next))
(define-fun .def_774 () Bool (or call__main_.call_controleur.retard .def_773))
(define-fun .def_767 () Bool (<= 10 call__main_.call_controleur.diff.next))
(define-fun .def_768 () Bool (= call__main_.call_controleur.ite.next .def_767))
(define-fun .def_769 () Bool (or call__main_.call_controleur.avance .def_768))
(define-fun .def_762 () Bool (<= call__main_.call_controleur.diff.next 0))
(define-fun .def_763 () Bool (not .def_762))
(define-fun .def_765 () Bool (= .def_763 call__main_.call_controleur.ite.next))
(define-fun .def_760 () Bool (not call__main_.call_controleur.avance))
(define-fun .def_766 () Bool (or .def_760 .def_765))
(define-fun .def_770 () Bool (and .def_766 .def_769))
(define-fun .def_775 () Bool (and .def_770 .def_774))
(define-fun .def_781 () Bool (and .def_775 .def_780))
(define-fun .def_758 () Bool (= call__main_.call_hypothese2.ite4.next call__main_.call_hypothese2.flby2.next))
(define-fun .def_753 () Bool (and call__main_.call_hypothese2.ite2.next call__main_.call_hypothese2.ite.next))
(define-fun .def_755 () Bool (= .def_753 call__main_.call_hypothese2.flby.next))
(define-fun .def_636 () Bool (<= 9 call__main_.call_hypothese2.c))
(define-fun .def_751 () Bool (or call__main_.call_hypothese2.ite2.next .def_636))
(define-fun .def_749 () Bool (= call__main_.call_hypothese.ite4.next call__main_.call_hypothese.flby2.next))
(define-fun .def_744 () Bool (and call__main_.call_hypothese.ite2.next call__main_.call_hypothese.ite.next))
(define-fun .def_746 () Bool (= .def_744 call__main_.call_hypothese.flby.next))
(define-fun .def_661 () Bool (<= 9 call__main_.call_hypothese.c))
(define-fun .def_742 () Bool (or call__main_.call_hypothese.ite2.next .def_661))
(define-fun .def_740 () Bool (= call__main_.ite3.next call__main_.flby3.next))
(define-fun .def_737 () Bool (= call__main_.ite2.next call__main_.flby2.next))
(define-fun .def_734 () Bool (= call__main_.ite.next call__main_.flby.next))
(define-fun .def_731 () Bool (or call__main_.retard1 call__main_.call_hypothese2.ite.next))
(define-fun .def_729 () Bool (or call__main_.retard0 call__main_.call_hypothese.ite.next))
(define-fun .def_722 () Bool (and call__main_.avance1 call__main_.avance1.next))
(define-fun .def_725 () Bool (not .def_722))
(define-fun .def_724 () Bool (= call__main_.call_hypothese2.ite3.next call__main_.call_hypothese2.ite4.next))
(define-fun .def_726 () Bool (or .def_724 .def_725))
(define-fun .def_720 () Bool (= call__main_.call_hypothese2.ite4.next 0))
(define-fun .def_723 () Bool (or .def_720 .def_722))
(define-fun .def_727 () Bool (and .def_723 .def_726))
(define-fun .def_712 () Bool (and call__main_.avance0 call__main_.avance0.next))
(define-fun .def_715 () Bool (not .def_712))
(define-fun .def_714 () Bool (= call__main_.call_hypothese.ite3.next call__main_.call_hypothese.ite4.next))
(define-fun .def_716 () Bool (or .def_714 .def_715))
(define-fun .def_710 () Bool (= call__main_.call_hypothese.ite4.next 0))
(define-fun .def_713 () Bool (or .def_710 .def_712))
(define-fun .def_717 () Bool (and .def_713 .def_716))
(define-fun .def_701 () Int (* (- 1) nB1))
(define-fun .def_702 () Int (+ nB0 .def_701))
(define-fun .def_704 () Bool (<= (- 30) .def_702))
(define-fun .def_703 () Bool (<= .def_702 30))
(define-fun .def_705 () Bool (and .def_703 .def_704))
(define-fun .def_707 () Bool (= .def_705 flby.next))
(define-fun .def_695 () Bool (= call__main_.nS call__main_.ite3.next))
(define-fun .def_696 () Bool (or param__S_.next .def_695))
(define-fun .def_690 () Int (* (- 1) call__main_.ite3.next))
(define-fun .def_691 () Int (+ call__main_.nS .def_690))
(define-fun .def_692 () Bool (= .def_691 (- 1)))
(define-fun .def_679 () Bool (not param__S_.next))
(define-fun .def_693 () Bool (or .def_679 .def_692))
(define-fun .def_686 () Bool (not call__main_.retard0))
(define-fun .def_685 () Bool (= .def_679 call__main_.call_hypothese.ite.next))
(define-fun .def_687 () Bool (or .def_685 .def_686))
(define-fun .def_682 () Bool (not call__main_.retard1))
(define-fun .def_681 () Bool (= .def_679 call__main_.call_hypothese2.ite.next))
(define-fun .def_683 () Bool (or .def_681 .def_682))
(define-fun .def_688 () Bool (and .def_683 .def_687))
(define-fun .def_694 () Bool (and .def_688 .def_693))
(define-fun .def_697 () Bool (and .def_694 .def_696))
(define-fun .def_674 () Bool (= call__main_.nB0 call__main_.ite.next))
(define-fun .def_675 () Bool (or param__B0_.next .def_674))
(define-fun .def_669 () Int (* (- 1) call__main_.ite.next))
(define-fun .def_670 () Int (+ call__main_.nB0 .def_669))
(define-fun .def_671 () Bool (= .def_670 (- 1)))
(define-fun .def_657 () Bool (not param__B0_.next))
(define-fun .def_672 () Bool (or .def_657 .def_671))
(define-fun .def_665 () Bool (= call__main_.call_hypothese.c call__main_.call_hypothese.ite3.next))
(define-fun .def_666 () Bool (or param__B0_.next .def_665))
(define-fun .def_662 () Bool (not .def_661))
(define-fun .def_660 () Bool (= .def_657 call__main_.call_hypothese.ite2.next))
(define-fun .def_663 () Bool (or .def_660 .def_662))
(define-fun .def_653 () Int (* (- 1) call__main_.call_hypothese.ite3.next))
(define-fun .def_654 () Int (+ call__main_.call_hypothese.c .def_653))
(define-fun .def_655 () Bool (= .def_654 (- 1)))
(define-fun .def_658 () Bool (or .def_655 .def_657))
(define-fun .def_664 () Bool (and .def_658 .def_663))
(define-fun .def_667 () Bool (and .def_664 .def_666))
(define-fun .def_673 () Bool (and .def_667 .def_672))
(define-fun .def_676 () Bool (and .def_673 .def_675))
(define-fun .def_649 () Bool (= call__main_.nB1 call__main_.ite2.next))
(define-fun .def_650 () Bool (or param__B1_.next .def_649))
(define-fun .def_644 () Int (* (- 1) call__main_.ite2.next))
(define-fun .def_645 () Int (+ call__main_.nB1 .def_644))
(define-fun .def_646 () Bool (= .def_645 (- 1)))
(define-fun .def_632 () Bool (not param__B1_.next))
(define-fun .def_647 () Bool (or .def_632 .def_646))
(define-fun .def_640 () Bool (= call__main_.call_hypothese2.c call__main_.call_hypothese2.ite3.next))
(define-fun .def_641 () Bool (or param__B1_.next .def_640))
(define-fun .def_637 () Bool (not .def_636))
(define-fun .def_635 () Bool (= .def_632 call__main_.call_hypothese2.ite2.next))
(define-fun .def_638 () Bool (or .def_635 .def_637))
(define-fun .def_628 () Int (* (- 1) call__main_.call_hypothese2.ite3.next))
(define-fun .def_629 () Int (+ call__main_.call_hypothese2.c .def_628))
(define-fun .def_630 () Bool (= .def_629 (- 1)))
(define-fun .def_633 () Bool (or .def_630 .def_632))
(define-fun .def_639 () Bool (and .def_633 .def_638))
(define-fun .def_642 () Bool (and .def_639 .def_641))
(define-fun .def_648 () Bool (and .def_642 .def_647))
(define-fun .def_651 () Bool (and .def_648 .def_650))
(define-fun .def_677 () Bool (and .def_651 .def_676))
(define-fun .def_698 () Bool (and .def_677 .def_697))
(define-fun .def_708 () Bool (and .def_698 .def_707))
(define-fun .def_718 () Bool (and .def_708 .def_717))
(define-fun .def_728 () Bool (and .def_718 .def_727))
(define-fun .def_730 () Bool (and .def_728 .def_729))
(define-fun .def_732 () Bool (and .def_730 .def_731))
(define-fun .def_735 () Bool (and .def_732 .def_734))
(define-fun .def_738 () Bool (and .def_735 .def_737))
(define-fun .def_741 () Bool (and .def_738 .def_740))
(define-fun .def_743 () Bool (and .def_741 .def_742))
(define-fun .def_747 () Bool (and .def_743 .def_746))
(define-fun .def_750 () Bool (and .def_747 .def_749))
(define-fun .def_752 () Bool (and .def_750 .def_751))
(define-fun .def_756 () Bool (and .def_752 .def_755))
(define-fun .def_759 () Bool (and .def_756 .def_758))
(define-fun .def_782 () Bool (and .def_759 .def_781))
(define-fun .def_785 () Bool (and .def_782 .def_784))
(define-fun .def_788 () Bool (and .def_785 .def_787))
(define-fun .def_811 () Bool (and .def_788 .def_810))
(define-fun .def_814 () Bool (and .def_811 .def_813))
(define-fun .def_817 () Bool (and .def_814 .def_816))
(define-fun .def_822 () Bool (and .def_817 .def_821))
(define-fun .def_931 () Bool (and .def_822 .def_930))
(assert .def_931)
